p cnf 60 87
2 33 7 0
33 7 32 0
7 32 2 0
32 2 33 0
-2 -33 -7 0
-33 -7 -32 0
-7 -32 -2 0
-32 -2 -33 0
3 34 8 0
34 8 33 0
8 33 3 0
33 3 34 0
-3 -34 -8 0
-34 -8 -33 0
-8 -33 -3 0
-33 -3 -34 0
-35 -5 -36 -10 0
-5 -36 0
-5 -10 0
-5 -35 0
-10 -35 0
-10 -36 0
-36 -35 0
7 39 12 0
39 12 38 0
12 38 7 0
38 7 39 0
-7 -39 -12 0
-39 -12 -38 0
-12 -38 -7 0
-38 -7 -39 0
-43 -11 -44 -16 0
-11 -44 0
-11 -16 0
-11 -43 0
-16 -43 0
-16 -44 0
-44 -43 0
12 45 17 0
45 17 44 0
17 44 12 0
44 12 45 0
-12 -45 -17 0
-45 -17 -44 0
-17 -44 -12 0
-44 -12 -45 0
16 21 49 50 0
-16 -50 0
-16 -21 0
-16 -49 0
-21 -49 0
-21 -50 0
-50 -49 0
-19 0
-24 0
-52 0
-53 0
-53 -20 -54 -25 0
-20 -54 0
-20 -25 0
-20 -53 0
-25 -53 0
-25 -54 0
-54 -53 0
22 57 27 0
57 27 56 0
27 56 22 0
56 22 57 0
-22 -57 -27 0
-57 -27 -56 0
-27 -56 -22 0
-56 -22 -57 0
23 58 28 0
58 28 57 0
28 57 23 0
57 23 58 0
-23 -58 -28 0
-58 -28 -57 0
-28 -57 -23 0
-57 -23 -58 0
-58 -24 -59 -29 0
-24 -59 0
-24 -29 0
-24 -58 0
-29 -58 0
-29 -59 0
-59 -58 0
